(set-logic QF_LRA)
(declare-fun X0 () Real )
(declare-fun Y0 () Real )
(declare-fun X1 () Real )
(declare-fun Y1 () Real )
(declare-fun X2 () Real )
(declare-fun Y2 () Real )
(declare-fun X3 () Real )
(declare-fun Y3 () Real )
(declare-fun X4 () Real )
(declare-fun Y4 () Real )
(declare-fun X5 () Real )
(declare-fun Y5 () Real )
(declare-fun X6 () Real )
(declare-fun Y6 () Real )
(declare-fun X7 () Real )
(declare-fun Y7 () Real )
(declare-fun X8 () Real )
(declare-fun Y8 () Real )
(declare-fun Z () Real )
(declare-fun k () Real )
(assert (let
(( $goal (>= Z k) ))
(let
((
$phi ( and 
( or ( <= ( + X0 3 ) X1 )  ( <= ( + X1 71 ) X0 )  ( <= ( + Y0 87 ) Y1 )  ( <= ( + Y1 95 ) Y0 )  )
( or ( <= ( + X0 3 ) X2 )  ( <= ( + X2 74 ) X0 )  ( <= ( + Y0 87 ) Y2 )  ( <= ( + Y2 1 ) Y0 )  )
( or ( <= ( + X0 3 ) X3 )  ( <= ( + X3 1 ) X0 )  ( <= ( + Y0 87 ) Y3 )  ( <= ( + Y3 85 ) Y0 )  )
( or ( <= ( + X0 3 ) X4 )  ( <= ( + X4 20 ) X0 )  ( <= ( + Y0 87 ) Y4 )  ( <= ( + Y4 11 ) Y0 )  )
( or ( <= ( + X0 3 ) X5 )  ( <= ( + X5 36 ) X0 )  ( <= ( + Y0 87 ) Y5 )  ( <= ( + Y5 89 ) Y0 )  )
( or ( <= ( + X0 3 ) X6 )  ( <= ( + X6 48 ) X0 )  ( <= ( + Y0 87 ) Y6 )  ( <= ( + Y6 81 ) Y0 )  )
( or ( <= ( + X0 3 ) X7 )  ( <= ( + X7 55 ) X0 )  ( <= ( + Y0 87 ) Y7 )  ( <= ( + Y7 20 ) Y0 )  )
( or ( <= ( + X0 3 ) X8 )  ( <= ( + X8 48 ) X0 )  ( <= ( + Y0 87 ) Y8 )  ( <= ( + Y8 7 ) Y0 )  )
( or ( <= ( + X1 71 ) X2 )  ( <= ( + X2 74 ) X1 )  ( <= ( + Y1 95 ) Y2 )  ( <= ( + Y2 1 ) Y1 )  )
( or ( <= ( + X1 71 ) X3 )  ( <= ( + X3 1 ) X1 )  ( <= ( + Y1 95 ) Y3 )  ( <= ( + Y3 85 ) Y1 )  )
( or ( <= ( + X1 71 ) X4 )  ( <= ( + X4 20 ) X1 )  ( <= ( + Y1 95 ) Y4 )  ( <= ( + Y4 11 ) Y1 )  )
( or ( <= ( + X1 71 ) X5 )  ( <= ( + X5 36 ) X1 )  ( <= ( + Y1 95 ) Y5 )  ( <= ( + Y5 89 ) Y1 )  )
( or ( <= ( + X1 71 ) X6 )  ( <= ( + X6 48 ) X1 )  ( <= ( + Y1 95 ) Y6 )  ( <= ( + Y6 81 ) Y1 )  )
( or ( <= ( + X1 71 ) X7 )  ( <= ( + X7 55 ) X1 )  ( <= ( + Y1 95 ) Y7 )  ( <= ( + Y7 20 ) Y1 )  )
( or ( <= ( + X1 71 ) X8 )  ( <= ( + X8 48 ) X1 )  ( <= ( + Y1 95 ) Y8 )  ( <= ( + Y8 7 ) Y1 )  )
( or ( <= ( + X2 74 ) X3 )  ( <= ( + X3 1 ) X2 )  ( <= ( + Y2 1 ) Y3 )  ( <= ( + Y3 85 ) Y2 )  )
( or ( <= ( + X2 74 ) X4 )  ( <= ( + X4 20 ) X2 )  ( <= ( + Y2 1 ) Y4 )  ( <= ( + Y4 11 ) Y2 )  )
( or ( <= ( + X2 74 ) X5 )  ( <= ( + X5 36 ) X2 )  ( <= ( + Y2 1 ) Y5 )  ( <= ( + Y5 89 ) Y2 )  )
( or ( <= ( + X2 74 ) X6 )  ( <= ( + X6 48 ) X2 )  ( <= ( + Y2 1 ) Y6 )  ( <= ( + Y6 81 ) Y2 )  )
( or ( <= ( + X2 74 ) X7 )  ( <= ( + X7 55 ) X2 )  ( <= ( + Y2 1 ) Y7 )  ( <= ( + Y7 20 ) Y2 )  )
( or ( <= ( + X2 74 ) X8 )  ( <= ( + X8 48 ) X2 )  ( <= ( + Y2 1 ) Y8 )  ( <= ( + Y8 7 ) Y2 )  )
( or ( <= ( + X3 1 ) X4 )  ( <= ( + X4 20 ) X3 )  ( <= ( + Y3 85 ) Y4 )  ( <= ( + Y4 11 ) Y3 )  )
( or ( <= ( + X3 1 ) X5 )  ( <= ( + X5 36 ) X3 )  ( <= ( + Y3 85 ) Y5 )  ( <= ( + Y5 89 ) Y3 )  )
( or ( <= ( + X3 1 ) X6 )  ( <= ( + X6 48 ) X3 )  ( <= ( + Y3 85 ) Y6 )  ( <= ( + Y6 81 ) Y3 )  )
( or ( <= ( + X3 1 ) X7 )  ( <= ( + X7 55 ) X3 )  ( <= ( + Y3 85 ) Y7 )  ( <= ( + Y7 20 ) Y3 )  )
( or ( <= ( + X3 1 ) X8 )  ( <= ( + X8 48 ) X3 )  ( <= ( + Y3 85 ) Y8 )  ( <= ( + Y8 7 ) Y3 )  )
( or ( <= ( + X4 20 ) X5 )  ( <= ( + X5 36 ) X4 )  ( <= ( + Y4 11 ) Y5 )  ( <= ( + Y5 89 ) Y4 )  )
( or ( <= ( + X4 20 ) X6 )  ( <= ( + X6 48 ) X4 )  ( <= ( + Y4 11 ) Y6 )  ( <= ( + Y6 81 ) Y4 )  )
( or ( <= ( + X4 20 ) X7 )  ( <= ( + X7 55 ) X4 )  ( <= ( + Y4 11 ) Y7 )  ( <= ( + Y7 20 ) Y4 )  )
( or ( <= ( + X4 20 ) X8 )  ( <= ( + X8 48 ) X4 )  ( <= ( + Y4 11 ) Y8 )  ( <= ( + Y8 7 ) Y4 )  )
( or ( <= ( + X5 36 ) X6 )  ( <= ( + X6 48 ) X5 )  ( <= ( + Y5 89 ) Y6 )  ( <= ( + Y6 81 ) Y5 )  )
( or ( <= ( + X5 36 ) X7 )  ( <= ( + X7 55 ) X5 )  ( <= ( + Y5 89 ) Y7 )  ( <= ( + Y7 20 ) Y5 )  )
( or ( <= ( + X5 36 ) X8 )  ( <= ( + X8 48 ) X5 )  ( <= ( + Y5 89 ) Y8 )  ( <= ( + Y8 7 ) Y5 )  )
( or ( <= ( + X6 48 ) X7 )  ( <= ( + X7 55 ) X6 )  ( <= ( + Y6 81 ) Y7 )  ( <= ( + Y7 20 ) Y6 )  )
( or ( <= ( + X6 48 ) X8 )  ( <= ( + X8 48 ) X6 )  ( <= ( + Y6 81 ) Y8 )  ( <= ( + Y8 7 ) Y6 )  )
( or ( <= ( + X7 55 ) X8 )  ( <= ( + X8 48 ) X7 )  ( <= ( + Y7 20 ) Y8 )  ( <= ( + Y8 7 ) Y7 )  )
( >= X0 0)
( <= ( + X0 3) Z)
( >= Y0 0)
( <= ( + Y0 87 ) 100)
( >= X1 0)
( <= ( + X1 71) Z)
( >= Y1 0)
( <= ( + Y1 95 ) 100)
( >= X2 0)
( <= ( + X2 74) Z)
( >= Y2 0)
( <= ( + Y2 1 ) 100)
( >= X3 0)
( <= ( + X3 1) Z)
( >= Y3 0)
( <= ( + Y3 85 ) 100)
( >= X4 0)
( <= ( + X4 20) Z)
( >= Y4 0)
( <= ( + Y4 11 ) 100)
( >= X5 0)
( <= ( + X5 36) Z)
( >= Y5 0)
( <= ( + Y5 89 ) 100)
( >= X6 0)
( <= ( + X6 48) Z)
( >= Y6 0)
( <= ( + Y6 81 ) 100)
( >= X7 0)
( <= ( + X7 55) Z)
( >= Y7 0)
( <= ( + Y7 20 ) 100)
( >= X8 0)
( <= ( + X8 48) Z)
( >= Y8 0)
( <= ( + Y8 7 ) 100)
) )
)(=> $phi $goal))))